
Gurobi 7.0.2 (mac64, Python) logging started Tue Mar 13 15:17:49 2018

Optimize a model with 55 rows, 31 columns and 140 nonzeros
Variable types: 6 continuous, 25 integer (25 binary)
Coefficient statistics:
  Matrix range     [1e+00, 8e+01]
  Objective range  [1e+00, 1e+00]
  Bounds range     [1e+00, 6e+01]
  RHS range        [7e+00, 7e+01]
Presolve time: 0.00s

Explored 0 nodes (0 simplex iterations) in 0.00 seconds
Thread count was 1 (of 4 available processors)

Solution count 0
Pool objective bound 1e+100

Model is infeasible
Best objective -, best bound -, gap -

Gurobi 7.0.2 (mac64, Python) logging started Tue Mar 13 15:19:18 2018

Optimize a model with 55 rows, 31 columns and 140 nonzeros
Variable types: 6 continuous, 25 integer (25 binary)
Coefficient statistics:
  Matrix range     [1e+00, 8e+01]
  Objective range  [1e+00, 1e+00]
  Bounds range     [1e+00, 6e+01]
  RHS range        [7e+00, 7e+01]
Presolve time: 0.00s

Explored 0 nodes (0 simplex iterations) in 0.00 seconds
Thread count was 1 (of 4 available processors)

Solution count 0
Pool objective bound 1e+100

Model is infeasible
Best objective -, best bound -, gap -

Gurobi 7.0.2 (mac64, Python) logging started Tue Mar 13 15:20:58 2018

Optimize a model with 55 rows, 31 columns and 140 nonzeros
Variable types: 6 continuous, 25 integer (25 binary)
Coefficient statistics:
  Matrix range     [1e+00, 8e+01]
  Objective range  [1e+00, 1e+00]
  Bounds range     [1e+00, 6e+01]
  RHS range        [7e+00, 7e+01]
Presolve time: 0.00s

Explored 0 nodes (0 simplex iterations) in 0.00 seconds
Thread count was 1 (of 4 available processors)

Solution count 0
Pool objective bound 1e+100

Model is infeasible
Best objective -, best bound -, gap -

Gurobi 7.0.2 (mac64, Python) logging started Tue Mar 13 15:21:53 2018

Optimize a model with 55 rows, 31 columns and 140 nonzeros
Variable types: 6 continuous, 25 integer (25 binary)
Coefficient statistics:
  Matrix range     [1e+00, 8e+01]
  Objective range  [1e+00, 1e+00]
  Bounds range     [1e+00, 6e+01]
  RHS range        [7e+00, 7e+01]
Presolve time: 0.00s

Explored 0 nodes (0 simplex iterations) in 0.00 seconds
Thread count was 1 (of 4 available processors)

Solution count 0
Pool objective bound 1e+100

Model is infeasible
Best objective -, best bound -, gap -

Gurobi 7.0.2 (mac64, Python) logging started Tue Mar 13 15:24:07 2018

Optimize a model with 55 rows, 31 columns and 140 nonzeros
Variable types: 6 continuous, 25 integer (25 binary)
Coefficient statistics:
  Matrix range     [1e+00, 8e+01]
  Objective range  [1e+00, 1e+00]
  Bounds range     [1e+00, 6e+01]
  RHS range        [7e+00, 7e+01]
Presolve time: 0.00s

Explored 0 nodes (0 simplex iterations) in 0.00 seconds
Thread count was 1 (of 4 available processors)

Solution count 0
Pool objective bound 1e+100

Model is infeasible
Best objective -, best bound -, gap -
